20J7M/DAT/20J7MNNL-10.dat
20 7
23.8318 23.8318
20.9432 20.9432
19.9472 19.9472
34.4907 34.4907
26.9925 26.9925
22.2937 22.2937
20.6436 20.6436
18.4262 18.4262
22.3191 22.3191
24.8048 24.8048
26.2039 26.2039
27.3614 27.3614
30.9556 30.9556
20.5174 20.5174
25.7173 25.7173
29.0677 29.0677
19.3595 19.3595
23.5966 23.5966
32.3804 32.3804
28.3335 28.3335
498.1861