20J7M/SOL/20J7MNNL-10.sol
solution status: optimal solution found
objective value:                              69.4829
x#1#4                                               1 	(obj:0)
x#2#1                                               1 	(obj:0)
x#3#1                                0.21679190030848 	(obj:0)
x#3#4                                0.78320809969152 	(obj:0)
x#4#6                                               1 	(obj:0)
x#5#2                                               1 	(obj:0)
x#6#4                                               1 	(obj:0)
x#7#4                                               1 	(obj:0)
x#8#6                                               1 	(obj:0)
x#9#5                                               1 	(obj:0)
x#10#5                                              1 	(obj:0)
x#11#7                                              1 	(obj:0)
x#12#2                                              1 	(obj:0)
x#13#3                                              1 	(obj:0)
x#14#3                                              1 	(obj:0)
x#15#6                             0.0547306016674109 	(obj:0)
x#15#7                              0.945269398332589 	(obj:0)
x#16#2                              0.443566300258307 	(obj:0)
x#16#3                              0.108579048052988 	(obj:0)
x#16#7                              0.447854651688706 	(obj:0)
x#17#3                              0.471827580953895 	(obj:0)
x#17#5                              0.528172419046105 	(obj:0)
x#18#6                                              1 	(obj:0)
x#19#1                              0.729530666709669 	(obj:0)
x#19#2                              0.270469333290331 	(obj:0)
x#20#1                                              1 	(obj:0)
z                                             69.4829 	(obj:1)
